2116, 0, 0, 32, 1
2117, 0, 1, 41, 3
2118, 0, 2, 52, 2
2119, 0, 3, 80, 4
2120, 0, 4, 63, 0
2121, 1, 0, 75, 2
2122, 1, 1, 38, 3
2123, 1, 2, 89, 1
2124, 1, 3, 58, 4
2125, 1, 4, 91, 0
2126, 2, 0, 34, 3
2127, 2, 1, 39, 2
2128, 2, 2, 36, 0
2129, 2, 3, 79, 4
2130, 2, 4, 47, 1
2131, 3, 0, 70, 3
2132, 3, 1, 82, 4
2133, 3, 2, 36, 2
2134, 3, 3, 66, 0
2135, 3, 4, 37, 1